IndustryOR/id13/farm_allocation.lp
\Generated by Cardinal Operations

Maximize
   1500 corn_area + 1200 wheat_area + 1800 soybeans_area 
   + 1600 sorghum_area 
Subject To
 total_area: corn_area + wheat_area + soybeans_area + sorghum_area <= 100
 corn_wheat_ratio: - 2 wheat_area + corn_area >= 0
 soybeans_sorghum_ratio: - 0.5 sorghum_area + soybeans_area >= 0
 wheat_sorghum_ratio: - 3 sorghum_area + wheat_area = 0
END

