IndustryOR/id13/farm_allocation.sol
# Objective value 180000
corn_area      0
wheat_area     0
soybeans_area  100
sorghum_area   0
